# Solution for model GNN
# Objective value = 2.2785728402602561e+00
A[0,0] 1
A[0,1] 1
A[0,2] 0
A[0,3] 0
A[1,0] 1
A[1,1] 1
A[1,2] 1
A[1,3] 1
A[2,0] 0
A[2,1] 1
A[2,2] 1
A[2,3] 0
A[3,0] 0
A[3,1] 1
A[3,2] 0
A[3,3] 1
x[0,0] 0
x[0,1] 1
x[0,2] 0
x[0,3] 0
x[0,4] 0
x[0,5] 1
x[0,6] 0
x[0,7] 0
x[0,8] 0
x[0,9] 0
x[0,10] 1
x[0,11] 0
x[0,12] 0
x[0,13] 0
x[1,0] 1
x[1,1] 0
x[1,2] 0
x[1,3] 0
x[1,4] 0
x[1,5] 0
x[1,6] 0
x[1,7] 1
x[1,8] 0
x[1,9] 0
x[1,10] 1
x[1,11] 0
x[1,12] 0
x[1,13] 0
x[2,0] 0
x[2,1] 1
x[2,2] 0
x[2,3] 0
x[2,4] 0
x[2,5] 1
x[2,6] 0
x[2,7] 0
x[2,8] 0
x[2,9] 0
x[2,10] 1
x[2,11] 0
x[2,12] 0
x[2,13] 0
x[3,0] 0
x[3,1] 1
x[3,2] 0
x[3,3] 0
x[3,4] 0
x[3,5] 1
x[3,6] 0
x[3,7] 0
x[3,8] 0
x[3,9] 0
x[3,10] 1
x[3,11] 0
x[3,12] 0
x[3,13] 0
c[0,0,0] 0
c[0,0,1] 0
c[0,0,2] 0
c[0,0,3] 0
c[0,0,4] 0
c[0,0,5] 0
c[0,0,6] 0
c[0,0,7] 0
c[0,0,8] 0
c[0,0,9] 0
c[0,0,10] 0
c[0,0,11] 0
c[0,0,12] 1
c[0,0,13] 0
c[0,0,14] 0
c[0,0,15] 0
c[0,0,16] 0
c[0,0,17] 0
c[0,0,18] 0
c[0,0,19] 0
c[0,0,20] 0
c[0,0,21] 0
c[0,0,22] 0
c[0,0,23] 0
c[0,0,24] 0
c[0,1,0] 0
c[0,1,1] 0
c[0,1,2] 0
c[0,1,3] 0
c[0,1,4] 0
c[0,1,5] 0
c[0,1,6] 0
c[0,1,7] 0
c[0,1,8] 0
c[0,1,9] 0
c[0,1,10] 0
c[0,1,11] 0
c[0,1,12] 0
c[0,1,13] 0
c[0,1,14] 1
c[0,1,15] 0
c[0,1,16] 0
c[0,1,17] 0
c[0,1,18] 0
c[0,1,19] 0
c[0,1,20] 0
c[0,1,21] 0
c[0,1,22] 0
c[0,1,23] 0
c[0,1,24] 0
c[0,2,0] 0
c[0,2,1] 0
c[0,2,2] 0
c[0,2,3] 0
c[0,2,4] 0
c[0,2,5] 0
c[0,2,6] 0
c[0,2,7] 0
c[0,2,8] 0
c[0,2,9] 0
c[0,2,10] 0
c[0,2,11] 0
c[0,2,12] 1
c[0,2,13] 0
c[0,2,14] 0
c[0,2,15] 0
c[0,2,16] 0
c[0,2,17] 0
c[0,2,18] 0
c[0,2,19] 0
c[0,2,20] 0
c[0,2,21] 0
c[0,2,22] 0
c[0,2,23] 0
c[0,2,24] 0
c[0,3,0] 0
c[0,3,1] 0
c[0,3,2] 0
c[0,3,3] 0
c[0,3,4] 0
c[0,3,5] 0
c[0,3,6] 0
c[0,3,7] 0
c[0,3,8] 0
c[0,3,9] 0
c[0,3,10] 0
c[0,3,11] 0
c[0,3,12] 1
c[0,3,13] 0
c[0,3,14] 0
c[0,3,15] 0
c[0,3,16] 0
c[0,3,17] 0
c[0,3,18] 0
c[0,3,19] 0
c[0,3,20] 0
c[0,3,21] 0
c[0,3,22] 0
c[0,3,23] 0
c[0,3,24] 0
c[1,0,0] 0
c[1,0,1] 0
c[1,0,2] 0
c[1,0,3] 0
c[1,0,4] 0
c[1,0,5] 0
c[1,0,6] 0
c[1,0,7] 0
c[1,0,8] 0
c[1,0,9] 0
c[1,0,10] 0
c[1,0,11] 0
c[1,0,12] 0
c[1,0,13] 0
c[1,0,14] 0
c[1,0,15] 0
c[1,0,16] 0
c[1,0,17] 0
c[1,0,18] 0
c[1,0,19] 0
c[1,0,20] 0
c[1,0,21] 0
c[1,0,22] 1
c[1,0,23] 0
c[1,0,24] 0
c[1,1,0] 0
c[1,1,1] 0
c[1,1,2] 0
c[1,1,3] 0
c[1,1,4] 0
c[1,1,5] 0
c[1,1,6] 0
c[1,1,7] 0
c[1,1,8] 0
c[1,1,9] 0
c[1,1,10] 0
c[1,1,11] 0
c[1,1,12] 0
c[1,1,13] 0
c[1,1,14] 0
c[1,1,15] 0
c[1,1,16] 0
c[1,1,17] 0
c[1,1,18] 0
c[1,1,19] 0
c[1,1,20] 0
c[1,1,21] 0
c[1,1,22] 0
c[1,1,23] 0
c[1,1,24] 1
c[1,2,0] 0
c[1,2,1] 0
c[1,2,2] 0
c[1,2,3] 0
c[1,2,4] 0
c[1,2,5] 0
c[1,2,6] 0
c[1,2,7] 0
c[1,2,8] 0
c[1,2,9] 0
c[1,2,10] 0
c[1,2,11] 0
c[1,2,12] 0
c[1,2,13] 0
c[1,2,14] 0
c[1,2,15] 0
c[1,2,16] 0
c[1,2,17] 0
c[1,2,18] 0
c[1,2,19] 0
c[1,2,20] 0
c[1,2,21] 0
c[1,2,22] 1
c[1,2,23] 0
c[1,2,24] 0
c[1,3,0] 0
c[1,3,1] 0
c[1,3,2] 0
c[1,3,3] 0
c[1,3,4] 0
c[1,3,5] 0
c[1,3,6] 0
c[1,3,7] 0
c[1,3,8] 0
c[1,3,9] 0
c[1,3,10] 0
c[1,3,11] 0
c[1,3,12] 0
c[1,3,13] 0
c[1,3,14] 0
c[1,3,15] 0
c[1,3,16] 0
c[1,3,17] 0
c[1,3,18] 0
c[1,3,19] 0
c[1,3,20] 0
c[1,3,21] 0
c[1,3,22] 1
c[1,3,23] 0
c[1,3,24] 0
c[2,0,0] 0
c[2,0,1] 0
c[2,0,2] 0
c[2,0,3] 0
c[2,0,4] 0
c[2,0,5] 0
c[2,0,6] 0
c[2,0,7] 0
c[2,0,8] 0
c[2,0,9] 0
c[2,0,10] 0
c[2,0,11] 0
c[2,0,12] 1
c[2,0,13] 0
c[2,0,14] 0
c[2,0,15] 0
c[2,0,16] 0
c[2,0,17] 0
c[2,0,18] 0
c[2,0,19] 0
c[2,0,20] 0
c[2,0,21] 0
c[2,0,22] 0
c[2,0,23] 0
c[2,0,24] 0
c[2,1,0] 0
c[2,1,1] 0
c[2,1,2] 0
c[2,1,3] 0
c[2,1,4] 0
c[2,1,5] 0
c[2,1,6] 0
c[2,1,7] 0
c[2,1,8] 0
c[2,1,9] 0
c[2,1,10] 0
c[2,1,11] 0
c[2,1,12] 0
c[2,1,13] 0
c[2,1,14] 1
c[2,1,15] 0
c[2,1,16] 0
c[2,1,17] 0
c[2,1,18] 0
c[2,1,19] 0
c[2,1,20] 0
c[2,1,21] 0
c[2,1,22] 0
c[2,1,23] 0
c[2,1,24] 0
c[2,2,0] 0
c[2,2,1] 0
c[2,2,2] 0
c[2,2,3] 0
c[2,2,4] 0
c[2,2,5] 0
c[2,2,6] 0
c[2,2,7] 0
c[2,2,8] 0
c[2,2,9] 0
c[2,2,10] 0
c[2,2,11] 0
c[2,2,12] 1
c[2,2,13] 0
c[2,2,14] 0
c[2,2,15] 0
c[2,2,16] 0
c[2,2,17] 0
c[2,2,18] 0
c[2,2,19] 0
c[2,2,20] 0
c[2,2,21] 0
c[2,2,22] 0
c[2,2,23] 0
c[2,2,24] 0
c[2,3,0] 0
c[2,3,1] 0
c[2,3,2] 0
c[2,3,3] 0
c[2,3,4] 0
c[2,3,5] 0
c[2,3,6] 0
c[2,3,7] 0
c[2,3,8] 0
c[2,3,9] 0
c[2,3,10] 0
c[2,3,11] 0
c[2,3,12] 1
c[2,3,13] 0
c[2,3,14] 0
c[2,3,15] 0
c[2,3,16] 0
c[2,3,17] 0
c[2,3,18] 0
c[2,3,19] 0
c[2,3,20] 0
c[2,3,21] 0
c[2,3,22] 0
c[2,3,23] 0
c[2,3,24] 0
c[3,0,0] 0
c[3,0,1] 0
c[3,0,2] 0
c[3,0,3] 0
c[3,0,4] 0
c[3,0,5] 0
c[3,0,6] 0
c[3,0,7] 0
c[3,0,8] 0
c[3,0,9] 0
c[3,0,10] 0
c[3,0,11] 0
c[3,0,12] 1
c[3,0,13] 0
c[3,0,14] 0
c[3,0,15] 0
c[3,0,16] 0
c[3,0,17] 0
c[3,0,18] 0
c[3,0,19] 0
c[3,0,20] 0
c[3,0,21] 0
c[3,0,22] 0
c[3,0,23] 0
c[3,0,24] 0
c[3,1,0] 0
c[3,1,1] 0
c[3,1,2] 0
c[3,1,3] 0
c[3,1,4] 0
c[3,1,5] 0
c[3,1,6] 0
c[3,1,7] 0
c[3,1,8] 0
c[3,1,9] 0
c[3,1,10] 0
c[3,1,11] 0
c[3,1,12] 0
c[3,1,13] 0
c[3,1,14] 1
c[3,1,15] 0
c[3,1,16] 0
c[3,1,17] 0
c[3,1,18] 0
c[3,1,19] 0
c[3,1,20] 0
c[3,1,21] 0
c[3,1,22] 0
c[3,1,23] 0
c[3,1,24] 0
c[3,2,0] 0
c[3,2,1] 0
c[3,2,2] 0
c[3,2,3] 0
c[3,2,4] 0
c[3,2,5] 0
c[3,2,6] 0
c[3,2,7] 0
c[3,2,8] 0
c[3,2,9] 0
c[3,2,10] 0
c[3,2,11] 0
c[3,2,12] 1
c[3,2,13] 0
c[3,2,14] 0
c[3,2,15] 0
c[3,2,16] 0
c[3,2,17] 0
c[3,2,18] 0
c[3,2,19] 0
c[3,2,20] 0
c[3,2,21] 0
c[3,2,22] 0
c[3,2,23] 0
c[3,2,24] 0
c[3,3,0] 0
c[3,3,1] 0
c[3,3,2] 0
c[3,3,3] 0
c[3,3,4] 0
c[3,3,5] 0
c[3,3,6] 0
c[3,3,7] 0
c[3,3,8] 0
c[3,3,9] 0
c[3,3,10] 0
c[3,3,11] 0
c[3,3,12] 1
c[3,3,13] 0
c[3,3,14] 0
c[3,3,15] 0
c[3,3,16] 0
c[3,3,17] 0
c[3,3,18] 0
c[3,3,19] 0
c[3,3,20] 0
c[3,3,21] 0
c[3,3,22] 0
c[3,3,23] 0
c[3,3,24] 0
b[0,0,0] 0
b[0,0,1] 0
b[0,0,2] 0
b[0,0,3] 0
b[0,0,4] 0
b[0,0,5] 0
b[0,0,6] 0
b[0,0,7] 0
b[0,0,8] 0
b[0,0,9] 0
b[0,0,10] 0
b[0,0,11] 0
b[0,0,12] 0
b[0,0,13] 0
b[0,1,0] 0
b[0,1,1] 0
b[0,1,2] 0
b[0,1,3] 0
b[0,1,4] 0
b[0,1,5] 0
b[0,1,6] 0
b[0,1,7] 0
b[0,1,8] 0
b[0,1,9] 0
b[0,1,10] 0
b[0,1,11] 0
b[0,1,12] 0
b[0,1,13] 0
b[0,2,0] 0
b[0,2,1] 0
b[0,2,2] 0
b[0,2,3] 0
b[0,2,4] 0
b[0,2,5] 0
b[0,2,6] 0
b[0,2,7] 0
b[0,2,8] 0
b[0,2,9] 0
b[0,2,10] 0
b[0,2,11] 0
b[0,2,12] 0
b[0,2,13] 0
b[0,3,0] 0
b[0,3,1] 0
b[0,3,2] 0
b[0,3,3] 0
b[0,3,4] 0
b[0,3,5] 0
b[0,3,6] 0
b[0,3,7] 0
b[0,3,8] 0
b[0,3,9] 0
b[0,3,10] 0
b[0,3,11] 0
b[0,3,12] 0
b[0,3,13] 0
b[1,0,0] 0
b[1,0,1] 0
b[1,0,2] 0
b[1,0,3] 0
b[1,0,4] 0
b[1,0,5] 0
b[1,0,6] 0
b[1,0,7] 0
b[1,0,8] 0
b[1,0,9] 0
b[1,0,10] 0
b[1,0,11] 0
b[1,0,12] 0
b[1,0,13] 0
b[1,1,0] 0
b[1,1,1] 0
b[1,1,2] 0
b[1,1,3] 0
b[1,1,4] 0
b[1,1,5] 0
b[1,1,6] 0
b[1,1,7] 0
b[1,1,8] 0
b[1,1,9] 0
b[1,1,10] 0
b[1,1,11] 0
b[1,1,12] 0
b[1,1,13] 0
b[1,2,0] 0
b[1,2,1] 0
b[1,2,2] 0
b[1,2,3] 0
b[1,2,4] 0
b[1,2,5] 0
b[1,2,6] 0
b[1,2,7] 0
b[1,2,8] 0
b[1,2,9] 0
b[1,2,10] 0
b[1,2,11] 0
b[1,2,12] 0
b[1,2,13] 0
b[1,3,0] 0
b[1,3,1] 0
b[1,3,2] 0
b[1,3,3] 0
b[1,3,4] 0
b[1,3,5] 0
b[1,3,6] 0
b[1,3,7] 0
b[1,3,8] 0
b[1,3,9] 0
b[1,3,10] 0
b[1,3,11] 0
b[1,3,12] 0
b[1,3,13] 0
b[2,0,0] 0
b[2,0,1] 0
b[2,0,2] 0
b[2,0,3] 0
b[2,0,4] 0
b[2,0,5] 0
b[2,0,6] 0
b[2,0,7] 0
b[2,0,8] 0
b[2,0,9] 0
b[2,0,10] 0
b[2,0,11] 0
b[2,0,12] 0
b[2,0,13] 0
b[2,1,0] 0
b[2,1,1] 0
b[2,1,2] 0
b[2,1,3] 0
b[2,1,4] 0
b[2,1,5] 0
b[2,1,6] 0
b[2,1,7] 0
b[2,1,8] 0
b[2,1,9] 0
b[2,1,10] 0
b[2,1,11] 0
b[2,1,12] 0
b[2,1,13] 0
b[2,2,0] 0
b[2,2,1] 0
b[2,2,2] 0
b[2,2,3] 0
b[2,2,4] 0
b[2,2,5] 0
b[2,2,6] 0
b[2,2,7] 0
b[2,2,8] 0
b[2,2,9] 0
b[2,2,10] 0
b[2,2,11] 0
b[2,2,12] 0
b[2,2,13] 0
b[2,3,0] 0
b[2,3,1] 0
b[2,3,2] 0
b[2,3,3] 0
b[2,3,4] 0
b[2,3,5] 0
b[2,3,6] 0
b[2,3,7] 0
b[2,3,8] 0
b[2,3,9] 0
b[2,3,10] 0
b[2,3,11] 0
b[2,3,12] 0
b[2,3,13] 0
b[3,0,0] 0
b[3,0,1] 0
b[3,0,2] 0
b[3,0,3] 0
b[3,0,4] 0
b[3,0,5] 0
b[3,0,6] 0
b[3,0,7] 0
b[3,0,8] 0
b[3,0,9] 0
b[3,0,10] 0
b[3,0,11] 0
b[3,0,12] 0
b[3,0,13] 0
b[3,1,0] 0
b[3,1,1] 0
b[3,1,2] 0
b[3,1,3] 0
b[3,1,4] 0
b[3,1,5] 0
b[3,1,6] 0
b[3,1,7] 0
b[3,1,8] 0
b[3,1,9] 0
b[3,1,10] 0
b[3,1,11] 0
b[3,1,12] 0
b[3,1,13] 0
b[3,2,0] 0
b[3,2,1] 0
b[3,2,2] 0
b[3,2,3] 0
b[3,2,4] 0
b[3,2,5] 0
b[3,2,6] 0
b[3,2,7] 0
b[3,2,8] 0
b[3,2,9] 0
b[3,2,10] 0
b[3,2,11] 0
b[3,2,12] 0
b[3,2,13] 0
b[3,3,0] 0
b[3,3,1] 0
b[3,3,2] 0
b[3,3,3] 0
b[3,3,4] 0
b[3,3,5] 0
b[3,3,6] 0
b[3,3,7] 0
b[3,3,8] 0
b[3,3,9] 0
b[3,3,10] 0
b[3,3,11] 0
b[3,3,12] 0
b[3,3,13] 0
sp[0,0] 4.9999999999999989e-01
sp[0,1] 3.5355339059327373e-01
sp[0,2] 4.9999999999999989e-01
sp[0,3] 4.9999999999999989e-01
sp[1,0] 3.5355339059327373e-01
sp[1,1] 0.25
sp[1,2] 3.5355339059327373e-01
sp[1,3] 3.5355339059327373e-01
sp[2,0] 4.9999999999999989e-01
sp[2,1] 3.5355339059327373e-01
sp[2,2] 4.9999999999999989e-01
sp[2,3] 4.9999999999999989e-01
sp[3,0] 4.9999999999999989e-01
sp[3,1] 3.5355339059327373e-01
sp[3,2] 4.9999999999999989e-01
sp[3,3] 4.9999999999999989e-01
d_plus[0] 2
d_plus[1] 4
d_plus[2] 2
d_plus[3] 2
p[0,0] 12
p[0,1] 14
p[0,2] 12
p[0,3] 12
p[1,0] 22
p[1,1] 24
p[1,2] 22
p[1,3] 22
p[2,0] 12
p[2,1] 14
p[2,2] 12
p[2,3] 12
p[3,0] 12
p[3,1] 14
p[3,2] 12
p[3,3] 12
t[0,0] 4.9999999999999989e-01
t[0,1] 3.5355339059327351e-01
t[0,2] 0
t[0,3] 0
t[1,0] 3.5355339059327351e-01
t[1,1] 0.25
t[1,2] 3.5355339059327012e-01
t[1,3] 3.5355339059326724e-01
t[2,0] 0
t[2,1] 3.5355339059326929e-01
t[2,2] 5.0000000000000033e-01
t[2,3] 0
t[3,0] 0
t[3,1] 3.5355339059326674e-01
t[3,2] 0
t[3,3] 0.5
h_prime[0,0] 0
h_prime[0,1] 0.745320828059123
h_prime[0,2] 0
h_prime[0,3] 7.7703829170159577e-01
h_prime[0,4] 2.6774896713320412e-01
h_prime[0,5] 0
h_prime[0,6] 4.1134618477959722e-01
h_prime[0,7] 0
h_prime[0,8] 7.8235238658519357e-01
h_prime[0,9] 7.4610942213450715e-01
h_prime[0,10] 0
h_prime[0,11] 2.0900612838525966e-03
h_prime[0,12] 0
h_prime[0,13] 0
h_prime[0,14] 1.6848359296024754e-01
h_prime[0,15] 6.8295673986462968e-01
h_prime[0,16] 1.1260975169567719e-02
h_prime[0,17] 0.648119214198563
h_prime[0,18] 0
h_prime[0,19] 5.5451256911814428e-01
h_prime[0,20] 0
h_prime[0,21] 3.6030267639327063e-01
h_prime[0,22] 7.2421747821378890e-02
h_prime[0,23] 0
h_prime[0,24] 5.7314547524896930e-01
h_prime[0,25] 0.405747781225643
h_prime[0,26] 2.2566671648437164e-01
h_prime[0,27] 3.0710731102924843e-01
h_prime[0,28] 4.9589349523972792e-01
h_prime[0,29] 7.7042943569943545e-01
h_prime[0,30] 0
h_prime[0,31] 0
h_prime[1,0] 0
h_prime[1,1] 1.0210831851665108e+00
h_prime[1,2] 0
h_prime[1,3] 1.0480985313948523e+00
h_prime[1,4] 3.0851844882770985e-01
h_prime[1,5] 0
h_prime[1,6] 6.1327016859933992e-01
h_prime[1,7] 0
h_prime[1,8] 1.1047428325128474e+00
h_prime[1,9] 1.0520155111781733e+00
h_prime[1,10] 0
h_prime[1,11] 0
h_prime[1,12] 0
h_prime[1,13] 0
h_prime[1,14] 1.5171228827754102e-01
h_prime[1,15] 9.3074243530348133e-01
h_prime[1,16] 0
h_prime[1,17] 9.1881270271903481e-01
h_prime[1,18] 0
h_prime[1,19] 8.0486383813735574e-01
h_prime[1,20] 0
h_prime[1,21] 4.8297904142583925e-01
h_prime[1,22] 9.3233653131000474e-02
h_prime[1,23] 0
h_prime[1,24] 7.9355502775765530e-01
h_prime[1,25] 5.5016471472944173e-01
h_prime[1,26] 2.3895520069185122e-01
h_prime[1,27] 4.4125615541340241e-01
h_prime[1,28] 6.6497917036561727e-01
h_prime[1,29] 1.0768391742527246e+00
h_prime[1,30] 0
h_prime[1,31] 0
h_prime[2,0] 0
h_prime[2,1] 7.4532082805911770e-01
h_prime[2,2] 0
h_prime[2,3] 7.7703829170159011e-01
h_prime[2,4] 2.6774896713320284e-01
h_prime[2,5] 0
h_prime[2,6] 4.1134618477959345e-01
h_prime[2,7] 0
h_prime[2,8] 7.8235238658518724e-01
h_prime[2,9] 7.4610942213450127e-01
h_prime[2,10] 0
h_prime[2,11] 0.00209006128385281
h_prime[2,12] 0
h_prime[2,13] 0
h_prime[2,14] 1.6848359296024723e-01
h_prime[2,15] 6.8295673986462446e-01
h_prime[2,16] 1.1260975169568036e-02
h_prime[2,17] 6.4811921419855734e-01
h_prime[2,18] 0
h_prime[2,19] 5.5451256911814006e-01
h_prime[2,20] 0
h_prime[2,21] 0.360302676393268
h_prime[2,22] 7.2421747821378279e-02
h_prime[2,23] 0
h_prime[2,24] 5.7314547524896509e-01
h_prime[2,25] 4.0574778122564004e-01
h_prime[2,26] 2.2566671648437059e-01
h_prime[2,27] 3.0710731102924566e-01
h_prime[2,28] 4.9589349523972442e-01
h_prime[2,29] 7.7042943569942934e-01
h_prime[2,30] 0
h_prime[2,31] 0
h_prime[3,0] 0
h_prime[3,1] 7.4532082805911326e-01
h_prime[3,2] 0
h_prime[3,3] 7.7703829170158589e-01
h_prime[3,4] 2.6774896713320168e-01
h_prime[3,5] 0
h_prime[3,6] 4.1134618477959073e-01
h_prime[3,7] 0
h_prime[3,8] 7.8235238658518291e-01
h_prime[3,9] 7.4610942213449682e-01
h_prime[3,10] 0
h_prime[3,11] 0.00209006128385291
h_prime[3,12] 0
h_prime[3,13] 0
h_prime[3,14] 1.6848359296024681e-01
h_prime[3,15] 6.8295673986462069e-01
h_prime[3,16] 1.1260975169568161e-02
h_prime[3,17] 6.4811921419855367e-01
h_prime[3,18] 0
h_prime[3,19] 5.5451256911813607e-01
h_prime[3,20] 0
h_prime[3,21] 3.6030267639326619e-01
h_prime[3,22] 7.2421747821377933e-02
h_prime[3,23] 0
h_prime[3,24] 0.573145475248962
h_prime[3,25] 4.0574778122563759e-01
h_prime[3,26] 2.2566671648436970e-01
h_prime[3,27] 3.0710731102924360e-01
h_prime[3,28] 4.9589349523972187e-01
h_prime[3,29] 7.7042943569942468e-01
h_prime[3,30] 0
h_prime[3,31] 0
x_0_0_0_GCN 0
s_0_0_0_GCN 1.0220201759618866e-02
z_0_0_0_GCN 0
x_0_0_1_GCN 2.6323557432701294e-01
s_0_0_1_GCN 0
z_0_0_1_GCN 1
x_0_0_2_GCN 0
s_0_0_2_GCN 0.0864008729937441
z_0_0_2_GCN 0
x_0_0_3_GCN 0
s_0_0_3_GCN 2.9730788991268225e-01
z_0_0_3_GCN 0
x_0_0_4_GCN 2.1158119904319594e-01
s_0_0_4_GCN 0
z_0_0_4_GCN 1
x_0_0_5_GCN 1.2896538533732313e-01
s_0_0_5_GCN 0
z_0_0_5_GCN 1
x_0_0_6_GCN 2.1230758898791571e-01
s_0_0_6_GCN 0
z_0_0_6_GCN 1
x_0_0_7_GCN 0
s_0_0_7_GCN 5.2856386997529418e-03
z_0_0_7_GCN 0
x_0_0_8_GCN 1.7184893909186205e-01
s_0_0_8_GCN 0
z_0_0_8_GCN 1
x_0_0_9_GCN 0
s_0_0_9_GCN 2.6166348527162792e-01
z_0_0_9_GCN 0
x_0_0_10_GCN 0
s_0_0_10_GCN 1.1279480510446482e-01
z_0_0_10_GCN 0
x_0_0_11_GCN 2.4400362472082929e-01
s_0_0_11_GCN 0
z_0_0_11_GCN 1
x_0_0_12_GCN 7.8399057119659166e-02
s_0_0_12_GCN 0
z_0_0_12_GCN 1
x_0_0_13_GCN 2.2932382982206131e-01
s_0_0_13_GCN 0
z_0_0_13_GCN 1
x_0_0_14_GCN 0
s_0_0_14_GCN 6.4679754514161969e-02
z_0_0_14_GCN 0
x_0_0_15_GCN 0
s_0_0_15_GCN 1.4890958139950985e-01
z_0_0_15_GCN 0
x_0_0_16_GCN 4.1545495477704038e-02
s_0_0_16_GCN 0
z_0_0_16_GCN 1
x_0_0_17_GCN 2.0213882764001864e-01
s_0_0_17_GCN 0
z_0_0_17_GCN 1
x_0_0_18_GCN 3.7151566813144704e-01
s_0_0_18_GCN 0
z_0_0_18_GCN 1
x_0_0_19_GCN 2.1831276117837742e-01
s_0_0_19_GCN 0
z_0_0_19_GCN 1
x_0_0_20_GCN 1.2350747124826079e-01
s_0_0_20_GCN 0
z_0_0_20_GCN 1
x_0_0_21_GCN 6.0550274552415781e-02
s_0_0_21_GCN 0
z_0_0_21_GCN 1
x_0_0_22_GCN 2.3711544628380213e-01
s_0_0_22_GCN 0
z_0_0_22_GCN 1
x_0_0_23_GCN 0
s_0_0_23_GCN 3.5604953727320594e-02
z_0_0_23_GCN 0
x_0_0_24_GCN 1.5441959676197239e-01
s_0_0_24_GCN 0
z_0_0_24_GCN 1
x_0_0_25_GCN 5.9951960882830321e-02
s_0_0_25_GCN 0
z_0_0_25_GCN 1
x_0_0_26_GCN 1.1574684914358571e-01
s_0_0_26_GCN 0
z_0_0_26_GCN 1
x_0_0_27_GCN 3.8892846928917219e-01
s_0_0_27_GCN 0
z_0_0_27_GCN 1
x_0_0_28_GCN 0
s_0_0_28_GCN 3.0107838422054140e-01
z_0_0_28_GCN 0
x_0_0_29_GCN 0
s_0_0_29_GCN 7.6245752483614579e-02
z_0_0_29_GCN 0
x_0_0_30_GCN 3.5200127216435190e-01
s_0_0_30_GCN 0
z_0_0_30_GCN 1
x_0_0_31_GCN 0
s_0_0_31_GCN 2.0381499082718338e-01
z_0_0_31_GCN 0
x_0_0_32_GCN 5.6750578137452490e-02
s_0_0_32_GCN 0
z_0_0_32_GCN 1
x_0_0_33_GCN 3.9370878945542004e-01
s_0_0_33_GCN 0
z_0_0_33_GCN 1
x_0_0_34_GCN 0
s_0_0_34_GCN 2.0225493568237385e-01
z_0_0_34_GCN 0
x_0_0_35_GCN 2.9341673743360092e-01
s_0_0_35_GCN 0
z_0_0_35_GCN 1
x_0_0_36_GCN 3.5165116711338193e-02
s_0_0_36_GCN 0
z_0_0_36_GCN 1
x_0_0_37_GCN 0
s_0_0_37_GCN 2.9028166561078150e-01
z_0_0_37_GCN 0
x_0_0_38_GCN 1.4484476890344244e-01
s_0_0_38_GCN 0
z_0_0_38_GCN 1
x_0_0_39_GCN 1.4801789754782874e-01
s_0_0_39_GCN 0
z_0_0_39_GCN 1
x_0_0_40_GCN 0
s_0_0_40_GCN 2.3657827878787432e-01
z_0_0_40_GCN 0
x_0_0_41_GCN 3.0640990802312240e-01
s_0_0_41_GCN 0
z_0_0_41_GCN 1
x_0_0_42_GCN 0
s_0_0_42_GCN 2.4436159540526103e-01
z_0_0_42_GCN 0
x_0_0_43_GCN 2.3242090353989248e-01
s_0_0_43_GCN 0
z_0_0_43_GCN 1
x_0_0_44_GCN 1.0477241675838091e-01
s_0_0_44_GCN 0
z_0_0_44_GCN 1
x_0_0_45_GCN 0
s_0_0_45_GCN 3.3199664591762357e-01
z_0_0_45_GCN 0
x_0_0_46_GCN 0
s_0_0_46_GCN 8.2465110759108326e-02
z_0_0_46_GCN 0
x_0_0_47_GCN 4.5828768864912373e-01
s_0_0_47_GCN 0
z_0_0_47_GCN 1
x_0_0_48_GCN 0
s_0_0_48_GCN 3.5822590426632786e-02
z_0_0_48_GCN 0
x_0_0_49_GCN 0
s_0_0_49_GCN 5.2446596928683829e-03
z_0_0_49_GCN 0
x_0_0_50_GCN 2.5645658325451276e-01
s_0_0_50_GCN 0
z_0_0_50_GCN 1
x_0_0_51_GCN 2.9199938639903789e-01
s_0_0_51_GCN 0
z_0_0_51_GCN 1
x_0_0_52_GCN 2.9963509965892321e-01
s_0_0_52_GCN 0
z_0_0_52_GCN 1
x_0_0_53_GCN 0
s_0_0_53_GCN 1.5700587775337441e-01
z_0_0_53_GCN 0
x_0_0_54_GCN 0
s_0_0_54_GCN 1.8778764591027758e-01
z_0_0_54_GCN 0
x_0_0_55_GCN 2.4721708757167007e-01
s_0_0_55_GCN 0
z_0_0_55_GCN 1
x_0_0_56_GCN 3.3521582535962807e-01
s_0_0_56_GCN 0
z_0_0_56_GCN 1
x_0_0_57_GCN 2.7280834254724423e-01
s_0_0_57_GCN 0
z_0_0_57_GCN 1
x_0_0_58_GCN 1.0472101199011205e-01
s_0_0_58_GCN 0
z_0_0_58_GCN 1
x_0_0_59_GCN 0
s_0_0_59_GCN 8.9660707665438114e-02
z_0_0_59_GCN 0
x_0_0_60_GCN 1.3085013687668343e-01
s_0_0_60_GCN 0
z_0_0_60_GCN 1
x_0_0_61_GCN 2.6153797228816061e-01
s_0_0_61_GCN 0
z_0_0_61_GCN 1
x_0_0_62_GCN 2.4187684444725824e-01
s_0_0_62_GCN 0
z_0_0_62_GCN 1
x_0_0_63_GCN 0
s_0_0_63_GCN 1.1529778555775208e-01
z_0_0_63_GCN 0
x_0_1_0_GCN 0
s_0_1_0_GCN 2.9676826334577516e-01
z_0_1_0_GCN 0
x_0_1_1_GCN 5.0374441606160869e-01
s_0_1_1_GCN 0
z_0_1_1_GCN 1
x_0_1_2_GCN 0
s_0_1_2_GCN 6.3250017222130542e-02
z_0_1_2_GCN 0
x_0_1_3_GCN 0
s_0_1_3_GCN 0.648990077882604
z_0_1_3_GCN 0
x_0_1_4_GCN 3.6601515646058247e-01
s_0_1_4_GCN 0
z_0_1_4_GCN 1
x_0_1_5_GCN 8.4467068139125384e-02
s_0_1_5_GCN 0
z_0_1_5_GCN 1
x_0_1_6_GCN 3.1457253026645687e-01
s_0_1_6_GCN 0
z_0_1_6_GCN 1
x_0_1_7_GCN 1.2420960000720371e-01
s_0_1_7_GCN 0
z_0_1_7_GCN 1
x_0_1_8_GCN 2.9326014356370766e-01
s_0_1_8_GCN 0
z_0_1_8_GCN 1
x_0_1_9_GCN 0
s_0_1_9_GCN 3.2270231628455337e-01
z_0_1_9_GCN 0
x_0_1_10_GCN 0
s_0_1_10_GCN 2.6753293967113212e-01
z_0_1_10_GCN 0
x_0_1_11_GCN 4.4453285607014487e-01
s_0_1_11_GCN 0
z_0_1_11_GCN 1
x_0_1_12_GCN 1.3563261158055287e-01
s_0_1_12_GCN 0
z_0_1_12_GCN 1
x_0_1_13_GCN 4.1217951417840926e-01
s_0_1_13_GCN 0
z_0_1_13_GCN 1
x_0_1_14_GCN 0
s_0_1_14_GCN 6.6268573606595466e-02
z_0_1_14_GCN 0
x_0_1_15_GCN 1.5047506549652003e-02
s_0_1_15_GCN 0
z_0_1_15_GCN 1
x_0_1_16_GCN 1.1704900698957434e-01
s_0_1_16_GCN 0
z_0_1_16_GCN 1
x_0_1_17_GCN 4.2577889697190674e-01
s_0_1_17_GCN 0
z_0_1_17_GCN 1
x_0_1_18_GCN 5.4834246299969713e-01
s_0_1_18_GCN 0
z_0_1_18_GCN 1
x_0_1_19_GCN 3.0725413340819696e-01
s_0_1_19_GCN 0
z_0_1_19_GCN 1
x_0_1_20_GCN 1.5521410382227419e-01
s_0_1_20_GCN 0
z_0_1_20_GCN 1
x_0_1_21_GCN 9.8131230628933128e-02
s_0_1_21_GCN 0
z_0_1_21_GCN 1
x_0_1_22_GCN 2.9030099388845970e-01
s_0_1_22_GCN 0
z_0_1_22_GCN 1
x_0_1_23_GCN 1.0128652953362174e-02
s_0_1_23_GCN 0
z_0_1_23_GCN 1
x_0_1_24_GCN 2.4267557117063684e-01
s_0_1_24_GCN 0
z_0_1_24_GCN 1
x_0_1_25_GCN 9.7396051340006527e-03
s_0_1_25_GCN 0
z_0_1_25_GCN 1
x_0_1_26_GCN 2.2641748193617472e-01
s_0_1_26_GCN 0
z_0_1_26_GCN 1
x_0_1_27_GCN 5.9791191738512650e-01
s_0_1_27_GCN 0
z_0_1_27_GCN 1
x_0_1_28_GCN 0
s_0_1_28_GCN 4.6925102412436720e-01
z_0_1_28_GCN 0
x_0_1_29_GCN 0
s_0_1_29_GCN 2.3520331020484084e-01
z_0_1_29_GCN 0
x_0_1_30_GCN 3.5238285145382509e-01
s_0_1_30_GCN 0
z_0_1_30_GCN 1
x_0_1_31_GCN 0
s_0_1_31_GCN 3.5278863998448479e-01
z_0_1_31_GCN 0
x_0_1_32_GCN 1.4828737948905789e-02
s_0_1_32_GCN 0
z_0_1_32_GCN 1
x_0_1_33_GCN 5.0891455152598164e-01
s_0_1_33_GCN 0
z_0_1_33_GCN 1
x_0_1_34_GCN 0
s_0_1_34_GCN 4.7016168720306417e-01
z_0_1_34_GCN 0
x_0_1_35_GCN 6.1973614219131878e-01
s_0_1_35_GCN 0
z_0_1_35_GCN 1
x_0_1_36_GCN 1.5047336907627198e-01
s_0_1_36_GCN 0
z_0_1_36_GCN 1
x_0_1_37_GCN 0
s_0_1_37_GCN 5.4879682575837574e-01
z_0_1_37_GCN 0
x_0_1_38_GCN 0.37496362503976
s_0_1_38_GCN 0
z_0_1_38_GCN 1
x_0_1_39_GCN 0
s_0_1_39_GCN 1.6380394209928258e-02
z_0_1_39_GCN 0
x_0_1_40_GCN 0
s_0_1_40_GCN 5.3091171311356677e-01
z_0_1_40_GCN 0
x_0_1_41_GCN 3.9584458516698512e-01
s_0_1_41_GCN 0
z_0_1_41_GCN 1
x_0_1_42_GCN 0
s_0_1_42_GCN 5.4573583189899311e-01
z_0_1_42_GCN 0
x_0_1_43_GCN 4.0332422609580326e-01
s_0_1_43_GCN 0
z_0_1_43_GCN 1
x_0_1_44_GCN 3.0002434696910768e-01
s_0_1_44_GCN 0
z_0_1_44_GCN 1
x_0_1_45_GCN 0
s_0_1_45_GCN 5.5158898535323042e-01
z_0_1_45_GCN 0
x_0_1_46_GCN 1.1320299193815525e-01
s_0_1_46_GCN 0
z_0_1_46_GCN 1
x_0_1_47_GCN 9.6606292079205514e-01
s_0_1_47_GCN 0
z_0_1_47_GCN 1
x_0_1_48_GCN 0
s_0_1_48_GCN 1.7993769680795632e-01
z_0_1_48_GCN 0
x_0_1_49_GCN 6.9390854256547882e-02
s_0_1_49_GCN 0
z_0_1_49_GCN 1
x_0_1_50_GCN 2.6264207034783749e-01
s_0_1_50_GCN 0
z_0_1_50_GCN 1
x_0_1_51_GCN 5.2177793892545110e-01
s_0_1_51_GCN 0
z_0_1_51_GCN 1
x_0_1_52_GCN 5.2250799593118358e-01
s_0_1_52_GCN 0
z_0_1_52_GCN 1
x_0_1_53_GCN 0
s_0_1_53_GCN 1.3954637844765369e-01
z_0_1_53_GCN 0
x_0_1_54_GCN 0
s_0_1_54_GCN 2.8831052839660293e-01
z_0_1_54_GCN 0
x_0_1_55_GCN 4.4150353122333097e-01
s_0_1_55_GCN 0
z_0_1_55_GCN 1
x_0_1_56_GCN 5.5386942989439436e-01
s_0_1_56_GCN 0
z_0_1_56_GCN 1
x_0_1_57_GCN 2.9520509814383289e-01
s_0_1_57_GCN 0
z_0_1_57_GCN 1
x_0_1_58_GCN 1.5002065182553684e-01
s_0_1_58_GCN 0
z_0_1_58_GCN 1
x_0_1_59_GCN 0
s_0_1_59_GCN 1.0337725515100336e-01
z_0_1_59_GCN 0
x_0_1_60_GCN 2.8882617348540512e-01
s_0_1_60_GCN 0
z_0_1_60_GCN 1
x_0_1_61_GCN 5.3333929409388448e-01
s_0_1_61_GCN 0
z_0_1_61_GCN 1
x_0_1_62_GCN 4.8993348808871140e-01
s_0_1_62_GCN 0
z_0_1_62_GCN 1
x_0_1_63_GCN 0
s_0_1_63_GCN 3.2474163015243618e-01
z_0_1_63_GCN 0
x_0_2_0_GCN 0
s_0_2_0_GCN 1.0220201759621361e-02
z_0_2_0_GCN 0
x_0_2_1_GCN 2.6323557432701267e-01
s_0_2_1_GCN 0
z_0_2_1_GCN 1
x_0_2_2_GCN 0
s_0_2_2_GCN 8.6400872993743077e-02
z_0_2_2_GCN 0
x_0_2_3_GCN 0
s_0_2_3_GCN 2.9730788991268264e-01
z_0_2_3_GCN 0
x_0_2_4_GCN 2.1158119904319542e-01
s_0_2_4_GCN 0
z_0_2_4_GCN 1
x_0_2_5_GCN 1.2896538533732149e-01
s_0_2_5_GCN 0
z_0_2_5_GCN 1
x_0_2_6_GCN 2.1230758898791466e-01
s_0_2_6_GCN 0
z_0_2_6_GCN 1
x_0_2_7_GCN 0
s_0_2_7_GCN 5.2856386997517067e-03
z_0_2_7_GCN 0
x_0_2_8_GCN 1.7184893909186155e-01
s_0_2_8_GCN 0
z_0_2_8_GCN 1
x_0_2_9_GCN 0
s_0_2_9_GCN 2.6166348527162603e-01
z_0_2_9_GCN 0
x_0_2_10_GCN 0
s_0_2_10_GCN 1.1279480510446517e-01
z_0_2_10_GCN 0
x_0_2_11_GCN 2.4400362472082882e-01
s_0_2_11_GCN 0
z_0_2_11_GCN 1
x_0_2_12_GCN 7.8399057119658916e-02
s_0_2_12_GCN 0
z_0_2_12_GCN 1
x_0_2_13_GCN 2.2932382982206087e-01
s_0_2_13_GCN 0
z_0_2_13_GCN 1
x_0_2_14_GCN 0
s_0_2_14_GCN 6.4679754514161386e-02
z_0_2_14_GCN 0
x_0_2_15_GCN 0
s_0_2_15_GCN 1.4890958139950697e-01
z_0_2_15_GCN 0
x_0_2_16_GCN 4.1545495477704336e-02
s_0_2_16_GCN 0
z_0_2_16_GCN 1
x_0_2_17_GCN 2.0213882764001881e-01
s_0_2_17_GCN 0
z_0_2_17_GCN 1
x_0_2_18_GCN 3.7151566813144526e-01
s_0_2_18_GCN 0
z_0_2_18_GCN 1
x_0_2_19_GCN 2.1831276117837625e-01
s_0_2_19_GCN 0
z_0_2_19_GCN 1
x_0_2_20_GCN 1.2350747124825995e-01
s_0_2_20_GCN 0
z_0_2_20_GCN 1
x_0_2_21_GCN 6.0550274552415566e-02
s_0_2_21_GCN 0
z_0_2_21_GCN 1
x_0_2_22_GCN 2.3711544628380041e-01
s_0_2_22_GCN 0
z_0_2_22_GCN 1
x_0_2_23_GCN 0
s_0_2_23_GCN 3.5604953727319845e-02
z_0_2_23_GCN 0
x_0_2_24_GCN 1.5441959676197178e-01
s_0_2_24_GCN 0
z_0_2_24_GCN 1
x_0_2_25_GCN 5.9951960882829315e-02
s_0_2_25_GCN 0
z_0_2_25_GCN 1
x_0_2_26_GCN 1.1574684914358566e-01
s_0_2_26_GCN 0
z_0_2_26_GCN 1
x_0_2_27_GCN 3.8892846928917052e-01
s_0_2_27_GCN 0
z_0_2_27_GCN 1
x_0_2_28_GCN 0
s_0_2_28_GCN 3.0107838422054006e-01
z_0_2_28_GCN 0
x_0_2_29_GCN 0
s_0_2_29_GCN 7.6245752483615328e-02
z_0_2_29_GCN 0
x_0_2_30_GCN 3.5200127216434857e-01
s_0_2_30_GCN 0
z_0_2_30_GCN 1
x_0_2_31_GCN 0
s_0_2_31_GCN 2.0381499082718285e-01
z_0_2_31_GCN 0
x_0_2_32_GCN 5.6750578137451588e-02
s_0_2_32_GCN 0
z_0_2_32_GCN 1
x_0_2_33_GCN 3.9370878945541737e-01
s_0_2_33_GCN 0
z_0_2_33_GCN 1
x_0_2_34_GCN 0
s_0_2_34_GCN 2.0225493568237443e-01
z_0_2_34_GCN 0
x_0_2_35_GCN 2.9341673743360114e-01
s_0_2_35_GCN 0
z_0_2_35_GCN 1
x_0_2_36_GCN 3.5165116711338935e-02
s_0_2_36_GCN 0
z_0_2_36_GCN 1
x_0_2_37_GCN 0
s_0_2_37_GCN 2.9028166561078111e-01
z_0_2_37_GCN 0
x_0_2_38_GCN 1.4484476890344319e-01
s_0_2_38_GCN 0
z_0_2_38_GCN 1
x_0_2_39_GCN 1.4801789754782588e-01
s_0_2_39_GCN 0
z_0_2_39_GCN 1
x_0_2_40_GCN 0
s_0_2_40_GCN 2.3657827878787480e-01
z_0_2_40_GCN 0
x_0_2_41_GCN 3.0640990802312035e-01
s_0_2_41_GCN 0
z_0_2_41_GCN 1
x_0_2_42_GCN 0
s_0_2_42_GCN 2.4436159540526153e-01
z_0_2_42_GCN 0
x_0_2_43_GCN 2.3242090353989189e-01
s_0_2_43_GCN 0
z_0_2_43_GCN 1
x_0_2_44_GCN 1.0477241675838173e-01
s_0_2_44_GCN 0
z_0_2_44_GCN 1
x_0_2_45_GCN 0
s_0_2_45_GCN 3.3199664591762251e-01
z_0_2_45_GCN 0
x_0_2_46_GCN 0
s_0_2_46_GCN 8.2465110759105814e-02
z_0_2_46_GCN 0
x_0_2_47_GCN 4.5828768864912411e-01
s_0_2_47_GCN 0
z_0_2_47_GCN 1
x_0_2_48_GCN 0
s_0_2_48_GCN 3.5822590426633730e-02
z_0_2_48_GCN 0
x_0_2_49_GCN 0
s_0_2_49_GCN 5.2446596928676752e-03
z_0_2_49_GCN 0
x_0_2_50_GCN 2.5645658325451043e-01
s_0_2_50_GCN 0
z_0_2_50_GCN 1
x_0_2_51_GCN 2.9199938639903728e-01
s_0_2_51_GCN 0
z_0_2_51_GCN 1
x_0_2_52_GCN 2.9963509965892249e-01
s_0_2_52_GCN 0
z_0_2_52_GCN 1
x_0_2_53_GCN 0
s_0_2_53_GCN 1.5700587775337280e-01
z_0_2_53_GCN 0
x_0_2_54_GCN 0
s_0_2_54_GCN 1.8778764591027672e-01
z_0_2_54_GCN 0
x_0_2_55_GCN 2.4721708757166952e-01
s_0_2_55_GCN 0
z_0_2_55_GCN 1
x_0_2_56_GCN 3.3521582535962696e-01
s_0_2_56_GCN 0
z_0_2_56_GCN 1
x_0_2_57_GCN 2.7280834254724190e-01
s_0_2_57_GCN 0
z_0_2_57_GCN 1
x_0_2_58_GCN 1.0472101199011150e-01
s_0_2_58_GCN 0
z_0_2_58_GCN 1
x_0_2_59_GCN 0
s_0_2_59_GCN 8.9660707665437378e-02
z_0_2_59_GCN 0
x_0_2_60_GCN 1.3085013687668368e-01
s_0_2_60_GCN 0
z_0_2_60_GCN 1
x_0_2_61_GCN 2.6153797228816061e-01
s_0_2_61_GCN 0
z_0_2_61_GCN 1
x_0_2_62_GCN 2.4187684444725827e-01
s_0_2_62_GCN 0
z_0_2_62_GCN 1
x_0_2_63_GCN 0
s_0_2_63_GCN 1.1529778555775291e-01
z_0_2_63_GCN 0
x_0_3_0_GCN 0
s_0_3_0_GCN 1.0220201759622623e-02
z_0_3_0_GCN 0
x_0_3_1_GCN 2.6323557432701222e-01
s_0_3_1_GCN 0
z_0_3_1_GCN 1
x_0_3_2_GCN 0
s_0_3_2_GCN 8.6400872993742467e-02
z_0_3_2_GCN 0
x_0_3_3_GCN 0
s_0_3_3_GCN 2.9730788991268259e-01
z_0_3_3_GCN 0
x_0_3_4_GCN 2.1158119904319486e-01
s_0_3_4_GCN 0
z_0_3_4_GCN 1
x_0_3_5_GCN 1.2896538533732058e-01
s_0_3_5_GCN 0
z_0_3_5_GCN 1
x_0_3_6_GCN 2.1230758898791388e-01
s_0_3_6_GCN 0
z_0_3_6_GCN 1
x_0_3_7_GCN 0
s_0_3_7_GCN 5.2856386997510961e-03
z_0_3_7_GCN 0
x_0_3_8_GCN 1.7184893909186111e-01
s_0_3_8_GCN 0
z_0_3_8_GCN 1
x_0_3_9_GCN 0
s_0_3_9_GCN 2.6166348527162481e-01
z_0_3_9_GCN 0
x_0_3_10_GCN 0
s_0_3_10_GCN 1.1279480510446524e-01
z_0_3_10_GCN 0
x_0_3_11_GCN 2.4400362472082834e-01
s_0_3_11_GCN 0
z_0_3_11_GCN 1
x_0_3_12_GCN 7.8399057119658749e-02
s_0_3_12_GCN 0
z_0_3_12_GCN 1
x_0_3_13_GCN 2.2932382982206037e-01
s_0_3_13_GCN 0
z_0_3_13_GCN 1
x_0_3_14_GCN 0
s_0_3_14_GCN 0.064679754514161
z_0_3_14_GCN 0
x_0_3_15_GCN 0
s_0_3_15_GCN 1.4890958139950533e-01
z_0_3_15_GCN 0
x_0_3_16_GCN 4.1545495477704447e-02
s_0_3_16_GCN 0
z_0_3_16_GCN 1
x_0_3_17_GCN 2.0213882764001864e-01
s_0_3_17_GCN 0
z_0_3_17_GCN 1
x_0_3_18_GCN 3.7151566813144388e-01
s_0_3_18_GCN 0
z_0_3_18_GCN 1
x_0_3_19_GCN 2.1831276117837536e-01
s_0_3_19_GCN 0
z_0_3_19_GCN 1
x_0_3_20_GCN 1.2350747124825937e-01
s_0_3_20_GCN 0
z_0_3_20_GCN 1
x_0_3_21_GCN 6.0550274552415392e-02
s_0_3_21_GCN 0
z_0_3_21_GCN 1
x_0_3_22_GCN 2.3711544628379927e-01
s_0_3_22_GCN 0
z_0_3_22_GCN 1
x_0_3_23_GCN 0
s_0_3_23_GCN 3.5604953727319422e-02
z_0_3_23_GCN 0
x_0_3_24_GCN 1.5441959676197128e-01
s_0_3_24_GCN 0
z_0_3_24_GCN 1
x_0_3_25_GCN 5.9951960882828725e-02
s_0_3_25_GCN 0
z_0_3_25_GCN 1
x_0_3_26_GCN 1.1574684914358549e-01
s_0_3_26_GCN 0
z_0_3_26_GCN 1
x_0_3_27_GCN 3.8892846928916919e-01
s_0_3_27_GCN 0
z_0_3_27_GCN 1
x_0_3_28_GCN 0
s_0_3_28_GCN 3.0107838422053912e-01
z_0_3_28_GCN 0
x_0_3_29_GCN 0
s_0_3_29_GCN 7.6245752483615620e-02
z_0_3_29_GCN 0
x_0_3_30_GCN 3.5200127216434651e-01
s_0_3_30_GCN 0
z_0_3_30_GCN 1
x_0_3_31_GCN 0
s_0_3_31_GCN 2.0381499082718232e-01
z_0_3_31_GCN 0
x_0_3_32_GCN 5.6750578137451060e-02
s_0_3_32_GCN 0
z_0_3_32_GCN 1
x_0_3_33_GCN 3.9370878945541560e-01
s_0_3_33_GCN 0
z_0_3_33_GCN 1
x_0_3_34_GCN 0
s_0_3_34_GCN 2.0225493568237449e-01
z_0_3_34_GCN 0
x_0_3_35_GCN 2.9341673743360092e-01
s_0_3_35_GCN 0
z_0_3_35_GCN 1
x_0_3_36_GCN 3.5165116711339262e-02
s_0_3_36_GCN 0
z_0_3_36_GCN 1
x_0_3_37_GCN 0
s_0_3_37_GCN 2.9028166561078067e-01
z_0_3_37_GCN 0
x_0_3_38_GCN 1.4484476890344342e-01
s_0_3_38_GCN 0
z_0_3_38_GCN 1
x_0_3_39_GCN 1.4801789754782421e-01
s_0_3_39_GCN 0
z_0_3_39_GCN 1
x_0_3_40_GCN 0
s_0_3_40_GCN 2.3657827878787477e-01
z_0_3_40_GCN 0
x_0_3_41_GCN 3.0640990802311896e-01
s_0_3_41_GCN 0
z_0_3_41_GCN 1
x_0_3_42_GCN 0
s_0_3_42_GCN 2.4436159540526148e-01
z_0_3_42_GCN 0
x_0_3_43_GCN 2.3242090353989131e-01
s_0_3_43_GCN 0
z_0_3_43_GCN 1
x_0_3_44_GCN 1.0477241675838202e-01
s_0_3_44_GCN 0
z_0_3_44_GCN 1
x_0_3_45_GCN 0
s_0_3_45_GCN 3.3199664591762157e-01
z_0_3_45_GCN 0
x_0_3_46_GCN 0
s_0_3_46_GCN 8.2465110759104371e-02
z_0_3_46_GCN 0
x_0_3_47_GCN 4.5828768864912378e-01
s_0_3_47_GCN 0
z_0_3_47_GCN 1
x_0_3_48_GCN 0
s_0_3_48_GCN 3.5822590426634188e-02
z_0_3_48_GCN 0
x_0_3_49_GCN 0
s_0_3_49_GCN 5.2446596928673005e-03
z_0_3_49_GCN 0
x_0_3_50_GCN 0.256456583254509
s_0_3_50_GCN 0
z_0_3_50_GCN 1
x_0_3_51_GCN 2.9199938639903661e-01
s_0_3_51_GCN 0
z_0_3_51_GCN 1
x_0_3_52_GCN 2.9963509965892171e-01
s_0_3_52_GCN 0
z_0_3_52_GCN 1
x_0_3_53_GCN 0
s_0_3_53_GCN 1.5700587775337180e-01
z_0_3_53_GCN 0
x_0_3_54_GCN 0
s_0_3_54_GCN 1.8778764591027611e-01
z_0_3_54_GCN 0
x_0_3_55_GCN 2.4721708757166896e-01
s_0_3_55_GCN 0
z_0_3_55_GCN 1
x_0_3_56_GCN 3.3521582535962596e-01
s_0_3_56_GCN 0
z_0_3_56_GCN 1
x_0_3_57_GCN 2.7280834254724040e-01
s_0_3_57_GCN 0
z_0_3_57_GCN 1
x_0_3_58_GCN 1.0472101199011109e-01
s_0_3_58_GCN 0
z_0_3_58_GCN 1
x_0_3_59_GCN 0
s_0_3_59_GCN 8.9660707665436934e-02
z_0_3_59_GCN 0
x_0_3_60_GCN 1.3085013687668365e-01
s_0_3_60_GCN 0
z_0_3_60_GCN 1
x_0_3_61_GCN 2.6153797228816039e-01
s_0_3_61_GCN 0
z_0_3_61_GCN 1
x_0_3_62_GCN 2.4187684444725796e-01
s_0_3_62_GCN 0
z_0_3_62_GCN 1
x_0_3_63_GCN 0
s_0_3_63_GCN 1.1529778555775322e-01
z_0_3_63_GCN 0
x_1_0_0_GCN 0
s_1_0_0_GCN 9.2965913824018892e-02
z_1_0_0_GCN 0
x_1_0_1_GCN 0
s_1_0_1_GCN 0
z_1_0_1_GCN 1
x_1_0_2_GCN 0
s_1_0_2_GCN 7.2384117250865083e-03
z_1_0_2_GCN 0
x_1_0_3_GCN 0
s_1_0_3_GCN 0
z_1_0_3_GCN 1
x_1_0_4_GCN 0
s_1_0_4_GCN 0
z_1_0_4_GCN 1
x_1_0_5_GCN 0
s_1_0_5_GCN 5.0852969074972373e-02
z_1_0_5_GCN 0
x_1_0_6_GCN 0
s_1_0_6_GCN 0
z_1_0_6_GCN 1
x_1_0_7_GCN 0
s_1_0_7_GCN 8.0673436850549743e-02
z_1_0_7_GCN 0
x_1_0_8_GCN 0
s_1_0_8_GCN 0
z_1_0_8_GCN 1
x_1_0_9_GCN 0
s_1_0_9_GCN 0
z_1_0_9_GCN 1
x_1_0_10_GCN 0
s_1_0_10_GCN 2.4379183546550137e-01
z_1_0_10_GCN 0
x_1_0_11_GCN 0
s_1_0_11_GCN 0
z_1_0_11_GCN 1
x_1_0_12_GCN 0
s_1_0_12_GCN 4.2005518909411024e-02
z_1_0_12_GCN 0
x_1_0_13_GCN 0
s_1_0_13_GCN 7.2136703311693834e-02
z_1_0_13_GCN 0
x_1_0_14_GCN 0
s_1_0_14_GCN 0
z_1_0_14_GCN 1
x_1_0_15_GCN 0
s_1_0_15_GCN 0
z_1_0_15_GCN 1
x_1_0_16_GCN 0
s_1_0_16_GCN 0
z_1_0_16_GCN 1
x_1_0_17_GCN 0
s_1_0_17_GCN 0
z_1_0_17_GCN 1
x_1_0_18_GCN 0
s_1_0_18_GCN 5.6049359271711494e-02
z_1_0_18_GCN 0
x_1_0_19_GCN 0
s_1_0_19_GCN 0
z_1_0_19_GCN 1
x_1_0_20_GCN 0
s_1_0_20_GCN 1.0216889003031339e-01
z_1_0_20_GCN 0
x_1_0_21_GCN 0
s_1_0_21_GCN 0
z_1_0_21_GCN 1
x_1_0_22_GCN 0
s_1_0_22_GCN 0
z_1_0_22_GCN 1
x_1_0_23_GCN 0
s_1_0_23_GCN 2.9003092922955814e-01
z_1_0_23_GCN 0
x_1_0_24_GCN 0
s_1_0_24_GCN 0
z_1_0_24_GCN 1
x_1_0_25_GCN 0
s_1_0_25_GCN 0
z_1_0_25_GCN 1
x_1_0_26_GCN 0
s_1_0_26_GCN 0
z_1_0_26_GCN 1
x_1_0_27_GCN 0
s_1_0_27_GCN 0
z_1_0_27_GCN 1
x_1_0_28_GCN 0
s_1_0_28_GCN 0
z_1_0_28_GCN 1
x_1_0_29_GCN 0
s_1_0_29_GCN 0
z_1_0_29_GCN 1
x_1_0_30_GCN 0
s_1_0_30_GCN 6.5835370321220249e-02
z_1_0_30_GCN 0
x_1_0_31_GCN 0
s_1_0_31_GCN 2.9264398668782432e-01
z_1_0_31_GCN 0
x_1_1_0_GCN 0
s_1_1_0_GCN 1.0106333106969818e-01
z_1_1_0_GCN 0
x_1_1_1_GCN 0
s_1_1_1_GCN 0
z_1_1_1_GCN 1
x_1_1_2_GCN 0
s_1_1_2_GCN 5.6314622378502190e-03
z_1_1_2_GCN 0
x_1_1_3_GCN 0
s_1_1_3_GCN 0
z_1_1_3_GCN 1
x_1_1_4_GCN 0
s_1_1_4_GCN 0
z_1_1_4_GCN 1
x_1_1_5_GCN 0
s_1_1_5_GCN 1.1520186675183365e-01
z_1_1_5_GCN 0
x_1_1_6_GCN 0
s_1_1_6_GCN 0
z_1_1_6_GCN 1
x_1_1_7_GCN 0
s_1_1_7_GCN 1.3470968601836256e-01
z_1_1_7_GCN 0
x_1_1_8_GCN 0
s_1_1_8_GCN 0
z_1_1_8_GCN 1
x_1_1_9_GCN 0
s_1_1_9_GCN 0
z_1_1_9_GCN 1
x_1_1_10_GCN 0
s_1_1_10_GCN 3.5072207587848242e-01
z_1_1_10_GCN 0
x_1_1_11_GCN 0
s_1_1_11_GCN 2.7267926233084442e-02
z_1_1_11_GCN 0
x_1_1_12_GCN 0
s_1_1_12_GCN 8.4698338325508216e-02
z_1_1_12_GCN 0
x_1_1_13_GCN 0
s_1_1_13_GCN 1.1109508601951787e-01
z_1_1_13_GCN 0
x_1_1_14_GCN 0
s_1_1_14_GCN 0
z_1_1_14_GCN 1
x_1_1_15_GCN 0
s_1_1_15_GCN 0
z_1_1_15_GCN 1
x_1_1_16_GCN 0
s_1_1_16_GCN 2.5123572380940221e-02
z_1_1_16_GCN 0
x_1_1_17_GCN 0
s_1_1_17_GCN 0
z_1_1_17_GCN 1
x_1_1_18_GCN 0
s_1_1_18_GCN 0.0541278700145336
z_1_1_18_GCN 0
x_1_1_19_GCN 0
s_1_1_19_GCN 0
z_1_1_19_GCN 1
x_1_1_20_GCN 0
s_1_1_20_GCN 0.0995735739368085
z_1_1_20_GCN 0
x_1_1_21_GCN 0
s_1_1_21_GCN 0
z_1_1_21_GCN 1
x_1_1_22_GCN 0
s_1_1_22_GCN 0
z_1_1_22_GCN 1
x_1_1_23_GCN 0
s_1_1_23_GCN 3.7642677946841396e-01
z_1_1_23_GCN 0
x_1_1_24_GCN 0
s_1_1_24_GCN 0
z_1_1_24_GCN 1
x_1_1_25_GCN 0
s_1_1_25_GCN 0
z_1_1_25_GCN 1
x_1_1_26_GCN 0
s_1_1_26_GCN 0
z_1_1_26_GCN 1
x_1_1_27_GCN 0
s_1_1_27_GCN 0
z_1_1_27_GCN 1
x_1_1_28_GCN 0
s_1_1_28_GCN 0
z_1_1_28_GCN 1
x_1_1_29_GCN 0
s_1_1_29_GCN 0
z_1_1_29_GCN 1
x_1_1_30_GCN 0
s_1_1_30_GCN 6.8147178551666771e-02
z_1_1_30_GCN 0
x_1_1_31_GCN 0
s_1_1_31_GCN 4.3513550961560316e-01
z_1_1_31_GCN 0
x_1_2_0_GCN 0
s_1_2_0_GCN 9.2965913824018392e-02
z_1_2_0_GCN 0
x_1_2_1_GCN 0
s_1_2_1_GCN 0
z_1_2_1_GCN 1
x_1_2_2_GCN 0
s_1_2_2_GCN 7.2384117250863106e-03
z_1_2_2_GCN 0
x_1_2_3_GCN 0
s_1_2_3_GCN 0
z_1_2_3_GCN 1
x_1_2_4_GCN 0
s_1_2_4_GCN 0
z_1_2_4_GCN 1
x_1_2_5_GCN 0
s_1_2_5_GCN 5.0852969074971471e-02
z_1_2_5_GCN 0
x_1_2_6_GCN 0
s_1_2_6_GCN 0
z_1_2_6_GCN 1
x_1_2_7_GCN 0
s_1_2_7_GCN 8.0673436850548647e-02
z_1_2_7_GCN 0
x_1_2_8_GCN 0
s_1_2_8_GCN 0
z_1_2_8_GCN 1
x_1_2_9_GCN 0
s_1_2_9_GCN 0
z_1_2_9_GCN 1
x_1_2_10_GCN 0
s_1_2_10_GCN 2.4379183546549932e-01
z_1_2_10_GCN 0
x_1_2_11_GCN 0
s_1_2_11_GCN 0
z_1_2_11_GCN 1
x_1_2_12_GCN 0
s_1_2_12_GCN 4.2005518909410192e-02
z_1_2_12_GCN 0
x_1_2_13_GCN 0
s_1_2_13_GCN 7.2136703311693126e-02
z_1_2_13_GCN 0
x_1_2_14_GCN 0
s_1_2_14_GCN 0
z_1_2_14_GCN 1
x_1_2_15_GCN 0
s_1_2_15_GCN 0
z_1_2_15_GCN 1
x_1_2_16_GCN 0
s_1_2_16_GCN 0
z_1_2_16_GCN 1
x_1_2_17_GCN 0
s_1_2_17_GCN 0
z_1_2_17_GCN 1
x_1_2_18_GCN 0
s_1_2_18_GCN 5.6049359271711473e-02
z_1_2_18_GCN 0
x_1_2_19_GCN 0
s_1_2_19_GCN 0
z_1_2_19_GCN 1
x_1_2_20_GCN 0
s_1_2_20_GCN 1.0216889003031296e-01
z_1_2_20_GCN 0
x_1_2_21_GCN 0
s_1_2_21_GCN 0
z_1_2_21_GCN 1
x_1_2_22_GCN 0
s_1_2_22_GCN 0
z_1_2_22_GCN 1
x_1_2_23_GCN 0
s_1_2_23_GCN 2.9003092922955609e-01
z_1_2_23_GCN 0
x_1_2_24_GCN 0
s_1_2_24_GCN 0
z_1_2_24_GCN 1
x_1_2_25_GCN 0
s_1_2_25_GCN 0
z_1_2_25_GCN 1
x_1_2_26_GCN 0
s_1_2_26_GCN 0
z_1_2_26_GCN 1
x_1_2_27_GCN 0
s_1_2_27_GCN 0
z_1_2_27_GCN 1
x_1_2_28_GCN 0
s_1_2_28_GCN 0
z_1_2_28_GCN 1
x_1_2_29_GCN 0
s_1_2_29_GCN 0
z_1_2_29_GCN 1
x_1_2_30_GCN 0
s_1_2_30_GCN 6.5835370321220110e-02
z_1_2_30_GCN 0
x_1_2_31_GCN 0
s_1_2_31_GCN 2.9264398668782171e-01
z_1_2_31_GCN 0
x_1_3_0_GCN 0
s_1_3_0_GCN 9.2965913824018170e-02
z_1_3_0_GCN 0
x_1_3_1_GCN 0
s_1_3_1_GCN 0
z_1_3_1_GCN 1
x_1_3_2_GCN 0
s_1_3_2_GCN 7.2384117250862134e-03
z_1_3_2_GCN 0
x_1_3_3_GCN 0
s_1_3_3_GCN 0
z_1_3_3_GCN 1
x_1_3_4_GCN 0
s_1_3_4_GCN 0
z_1_3_4_GCN 1
x_1_3_5_GCN 0
s_1_3_5_GCN 0.0508529690749709
z_1_3_5_GCN 0
x_1_3_6_GCN 0
s_1_3_6_GCN 0
z_1_3_6_GCN 1
x_1_3_7_GCN 0
s_1_3_7_GCN 8.0673436850548008e-02
z_1_3_7_GCN 0
x_1_3_8_GCN 0
s_1_3_8_GCN 0
z_1_3_8_GCN 1
x_1_3_9_GCN 0
s_1_3_9_GCN 0
z_1_3_9_GCN 1
x_1_3_10_GCN 0
s_1_3_10_GCN 2.4379183546549782e-01
z_1_3_10_GCN 0
x_1_3_11_GCN 0
s_1_3_11_GCN 0
z_1_3_11_GCN 1
x_1_3_12_GCN 0
s_1_3_12_GCN 4.2005518909409713e-02
z_1_3_12_GCN 0
x_1_3_13_GCN 0
s_1_3_13_GCN 7.2136703311692668e-02
z_1_3_13_GCN 0
x_1_3_14_GCN 0
s_1_3_14_GCN 0
z_1_3_14_GCN 1
x_1_3_15_GCN 0
s_1_3_15_GCN 0
z_1_3_15_GCN 1
x_1_3_16_GCN 0
s_1_3_16_GCN 0
z_1_3_16_GCN 1
x_1_3_17_GCN 0
s_1_3_17_GCN 0
z_1_3_17_GCN 1
x_1_3_18_GCN 0
s_1_3_18_GCN 5.6049359271711424e-02
z_1_3_18_GCN 0
x_1_3_19_GCN 0
s_1_3_19_GCN 0
z_1_3_19_GCN 1
x_1_3_20_GCN 0
s_1_3_20_GCN 1.0216889003031257e-01
z_1_3_20_GCN 0
x_1_3_21_GCN 0
s_1_3_21_GCN 0
z_1_3_21_GCN 1
x_1_3_22_GCN 0
s_1_3_22_GCN 0
z_1_3_22_GCN 1
x_1_3_23_GCN 0
s_1_3_23_GCN 2.9003092922955481e-01
z_1_3_23_GCN 0
x_1_3_24_GCN 0
s_1_3_24_GCN 0
z_1_3_24_GCN 1
x_1_3_25_GCN 0
s_1_3_25_GCN 0
z_1_3_25_GCN 1
x_1_3_26_GCN 0
s_1_3_26_GCN 0
z_1_3_26_GCN 1
x_1_3_27_GCN 0
s_1_3_27_GCN 0
z_1_3_27_GCN 1
x_1_3_28_GCN 0
s_1_3_28_GCN 0
z_1_3_28_GCN 1
x_1_3_29_GCN 0
s_1_3_29_GCN 0
z_1_3_29_GCN 1
x_1_3_30_GCN 0
s_1_3_30_GCN 6.5835370321219874e-02
z_1_3_30_GCN 0
x_1_3_31_GCN 0
s_1_3_31_GCN 2.9264398668781966e-01
z_1_3_31_GCN 0
h[0] 0
h[1] 3.2570456693438388e+00
h[2] 0
h[3] 3.37921340649968
h[4] 1.1117653502273370e+00
h[5] 0
h[6] 1.8473087229381449e+00
h[7] 0
h[8] 3.4517999922683060e+00
h[9] 3.2903437775815405e+00
h[10] 0
h[11] 6.2701838517895681e-03
h[12] 0
h[13] 0
h[14] 6.5716306715819428e-01
h[15] 2.9796126548973874e+00
h[16] 3.3782925508724304e-02
h[17] 2.8631703453147850e+00
h[18] 0
h[19] 2.4684015454916874e+00
h[20] 0
h[21] 1.5638870706056380e+00
h[22] 3.1049889659505681e-01
h[23] 0
h[24] 2.5129914535045685e+00
h[25] 1.7674080584065095e+00
h[26] 9.1595535014455010e-01
h[27] 1.3625780885010741e+00
h[28] 2.1526596560848716e+00
h[29] 3.3881274813509634e+00
h[30] 0
h[31] 0
y 2.2785728402602561e+00
x_1_0_ANN 0
s_1_0_ANN 1.6959706630447619e-01
z_1_0_ANN 0
x_1_1_ANN 0
s_1_1_ANN 1.8869243380594730e-01
z_1_1_ANN 0
x_1_2_ANN 0
s_1_2_ANN 1.1115981812418196e+00
z_1_2_ANN 0
x_1_3_ANN 3.5791241939989549e+00
s_1_3_ANN 0
z_1_3_ANN 1
x_1_4_ANN 0
s_1_4_ANN 1.4107192053774971e+00
z_1_4_ANN 0
x_1_5_ANN 3.0132242831699276e+00
s_1_5_ANN 0
z_1_5_ANN 1
x_1_6_ANN 0
s_1_6_ANN 8.0114292786782715e-01
z_1_6_ANN 0
x_1_7_ANN 0
s_1_7_ANN 1.2663338694278
z_1_7_ANN 0
x_1_8_ANN 0.631102095232776
s_1_8_ANN 0
z_1_8_ANN 1
x_1_9_ANN 1.7091275985812437e+00
s_1_9_ANN 0
z_1_9_ANN 1
x_1_10_ANN 3.3160257695774988e+00
s_1_10_ANN 0
z_1_10_ANN 1
x_1_11_ANN 3.6698621168247345e+00
s_1_11_ANN 0
z_1_11_ANN 1
x_1_12_ANN 4.9598240389185539e+00
s_1_12_ANN 0
z_1_12_ANN 1
x_1_13_ANN 0
s_1_13_ANN 1.3315461243748070e+00
z_1_13_ANN 0
x_1_14_ANN 0
s_1_14_ANN 1.7021001921220009e+00
z_1_14_ANN 0
x_1_15_ANN 0
s_1_15_ANN 8.7498492467765832e-01
z_1_15_ANN 0
